NAME : single
TYPE : ATSP
DIMENSION : 9
EDGE_WEIGHT_TYPE : EXPLICIT
EDGE_WEIGHT_FORMAT : FULL_MATRIX
EDGE_WEIGHT_SECTION
0 208 50128 50158 50139 50152 50141 50153 50152 
0 0 50000 114 50000 50000 50000 50000 50000 
0 50000 0 132 147 144 127 246 214 
0 114 132 0 98 176 139 294 165 
0 50000 147 98 0 274 104 206 89 
0 50000 144 176 274 0 255 118 257 
0 50000 127 139 104 255 0 225 137 
0 50000 246 294 206 118 225 0 139 
0 50000 214 165 89 257 137 139 0 
EOF